
#(C) 2019 by FIZ Karlsruhe - Leibniz Institute for Information Infrastructure.  All rights reserved.
data_154417-ICSD
_database_code_ICSD 154417
_audit_creation_date 2007-04-01
_audit_update_record 2013-02-01
_chemical_name_systematic 'Lithium manganese oxide (0.7/1/2) - II'
_chemical_formula_structural 'Li0.7 Mn O2'
_chemical_formula_sum 'Li0.7 Mn1 O2'
_exptl_crystal_density_diffrn 4.01
_publ_section_title

;
Li content dependence of thermodynamic stability abd the crystal structure of
Lix Mn1-y My O2 (M = Mn, Al, Cu) as a cathode active material for Li secondary
battery
;
loop_
_citation_id
_citation_journal_full
_citation_year
_citation_journal_volume
_citation_page_first
_citation_page_last
_citation_journal_id_ASTM
primary 'Electrochemistry (Tokyo, Japan)' 2005 73 823 829 EECTFA
loop_
_publ_author_name
'Idemoto, Y.'
'Konno, Y.'
'Ui, K.'
'Koura, N.'
_cell_length_a 4.656(6)
_cell_length_b 2.832(6)
_cell_length_c 5.766(14)
_cell_angle_alpha 90.
_cell_angle_beta 90.
_cell_angle_gamma 90.
_cell_volume 76.03
_cell_formula_units_Z 2
_symmetry_space_group_name_H-M 'P m m n Z'
_symmetry_Int_Tables_number 59
_refine_ls_R_factor_all 0.0452
loop_
_symmetry_equiv_pos_site_id
_symmetry_equiv_pos_as_xyz
1 'x+1/2, y+1/2, -z'
2 '-x, y+1/2, -z'
3 'x+1/2, -y, -z'
4 '-x, -y, -z'
5 '-x+1/2, -y+1/2, z'
6 'x, -y+1/2, z'
7 '-x+1/2, y, z'
8 'x, y, z'
loop_
_atom_type_symbol
_atom_type_oxidation_number
Li1+ 1
Mn3+ 3.3
O2- -2
loop_
_atom_site_label
_atom_site_type_symbol
_atom_site_symmetry_multiplicity
_atom_site_Wyckoff_symbol
_atom_site_fract_x
_atom_site_fract_y
_atom_site_fract_z
_atom_site_B_iso_or_equiv
_atom_site_occupancy
_atom_site_attached_hydrogens
Li1 Li1+ 2 a 0.25 0.25 0.11(25) 0.1 0.7 0
Mn1 Mn3+ 2 a 0.25 0.25 0.63(13) 0.3 1. 0
O1 O2- 2 b 0.75 0.25 0.12(10) 0.82 1. 0
O2 O2- 2 b 0.75 0.25 0.61(8) 0.54 1. 0
#End of TTdata_154417-ICSD