
#(C) 2019 by FIZ Karlsruhe - Leibniz Institute for Information Infrastructure.  All rights reserved.
data_162215-ICSD
_database_code_ICSD 162215
_audit_creation_date 2009-08-01
_chemical_name_systematic 'Dilithium titanate'
_chemical_formula_structural 'Li2 (Ti O3)'
_chemical_formula_sum 'Li2 O3 Ti1'
_chemical_name_structure_type Li2SnO3
_exptl_crystal_density_diffrn 3.42
_cell_measurement_temperature 295.
_publ_section_title
'Crystal growth and structure refinement of monoclinic Li2 Ti O3'
loop_
_citation_id
_citation_journal_full
_citation_year
_citation_journal_volume
_citation_page_first
_citation_page_last
_citation_journal_id_ASTM
primary 'Materials Research Bulletin' 2009 44 168 172 MRBUAC
loop_
_publ_author_name
'Kataoka, K.'
'Takahashi, Y.'
'Kijima, N.'
'Nagai, H.'
'Akimoto, J.'
'Idemoto, Y.'
'Ohshima, K.'
_cell_length_a 5.0623(5)
_cell_length_b 8.7876(9)
_cell_length_c 9.7533(15)
_cell_angle_alpha 90.
_cell_angle_beta 100.212(11)
_cell_angle_gamma 90.
_cell_volume 427.01
_cell_formula_units_Z 8
_symmetry_space_group_name_H-M 'C 1 2/c 1'
_symmetry_Int_Tables_number 15
_refine_ls_R_factor_all 0.024
loop_
_symmetry_equiv_pos_site_id
_symmetry_equiv_pos_as_xyz
1 'x, -y, z+1/2'
2 '-x, -y, -z'
3 '-x, y, -z+1/2'
4 'x, y, z'
5 'x+1/2, -y+1/2, z+1/2'
6 '-x+1/2, -y+1/2, -z'
7 '-x+1/2, y+1/2, -z+1/2'
8 'x+1/2, y+1/2, z'
loop_
_atom_type_symbol
_atom_type_oxidation_number
Li1+ 1
Ti4+ 4
O2- -2
loop_
_atom_site_label
_atom_site_type_symbol
_atom_site_symmetry_multiplicity
_atom_site_Wyckoff_symbol
_atom_site_fract_x
_atom_site_fract_y
_atom_site_fract_z
_atom_site_B_iso_or_equiv
_atom_site_occupancy
_atom_site_attached_hydrogens
Li1 Li1+ 8 f 0.2383(6) 0.0795(3) -0.0001(3) 0.0147(10) 1. 0
Li2 Li1+ 4 d 0.25 0.25 0.5 0.0161(15) 1. 0
Li3 Li1+ 4 e 0 0.0852(7) 0.25 0.0040(8) 1. 0
Ti1 Ti4+ 4 e 0 0.41749 0.25 0.00581(6) 1. 0
Ti2 Ti4+ 4 e 0 0.74971(6) 0.25 0.00575(7) 1. 0
O1 O2- 8 f 0.14116(15) 0.26356(12) 0.13720(7) 0.0054(2) 1. 0
O2 O2- 8 f 0.10555(14) 0.58444(16) 0.13719(7) 0.00549(18) 1. 0
O3 O2- 8 f 0.13958(15) 0.90588(14) 0.13454(7) 0.0056(2) 1. 0
loop_
_atom_site_aniso_label
_atom_site_aniso_type_symbol
_atom_site_aniso_U_11
_atom_site_aniso_U_22
_atom_site_aniso_U_33
_atom_site_aniso_U_12
_atom_site_aniso_U_13
_atom_site_aniso_U_23
Li1 Li1+ 0.0141(10) 0.0161(12) 0.0130(9) -0.0030(18) 0.0003(8) 0.0008(19)
Li2 Li1+ 0.0196(17) 0.0138(16) 0.0154(15) 0.000(2) 0.0042(12) 0.007(2)
Li3 Li1+ 0.0047(9) 0.0022(9) 0.0046(8) 0. -0.0006(7) 0.
Ti1 Ti4+ 0.00560(7) 0.00529(7) 0.00649(7) 0. 0.00092(5) 0.
Ti2 Ti4+ 0.00548(7) 0.00528(7) 0.00647(7) 0. 0.00098(5) 0.
O1 O2- 0.0051(2) 0.0062(4) 0.00480(17) 0.00053(18) 0.00034(14) -0.00063(17)
O2 O2- 0.0069(2) 0.0051(2) 0.00466(17) 0.0004(3) 0.00173(14) 0.0001(2)
O3 O2- 0.0052(2) 0.0066(3) 0.00474(17) -0.00058(19) 0.00025(14) 0.00081(17)
#End of TTdata_162215-ICSD