
#(C) 2019 by FIZ Karlsruhe - Leibniz Institute for Information Infrastructure.  All rights reserved.
data_163147-ICSD
_database_code_ICSD 163147
_audit_creation_date 2009-08-01
_chemical_name_systematic 'Titanium deuteriooxide fluoride (0.75/1.5/1.5)'
_chemical_formula_structural 'Ti0.75 ((O D)1.5 F1.5)'
_chemical_formula_sum 'D1.5 F1.5 O1.5 Ti0.75'
_chemical_name_structure_type (AlF3)1-x(H2O).5
_exptl_crystal_density_diffrn 2.75
_cell_measurement_temperature 293.
_publ_section_title
'New titanium hydroxyfluoride Ti0.75 (O H)1.5 F1.5 as a UV absorber'
loop_
_citation_id
_citation_journal_full
_citation_year
_citation_journal_volume
_citation_page_first
_citation_page_last
_citation_journal_id_ASTM
primary 'Chemistry of Materials' 2009 21 1275 1283 CMATEX
loop_
_publ_author_name
'Demourgues, A.'
'Penin, N.'
'Durand, E.'
'Weill, F.'
'Dambournet, D.'
'Viadere, N.'
'Tressaud, A.'
_cell_length_a 3.81012(4)
_cell_length_b 3.81012(4)
_cell_length_c 3.81012(4)
_cell_angle_alpha 90.
_cell_angle_beta 90.
_cell_angle_gamma 90.
_cell_volume 55.31
_cell_formula_units_Z 1
_symmetry_space_group_name_H-M 'P m -3 m'
_symmetry_Int_Tables_number 221
_refine_ls_R_factor_all 0.0372
loop_
_symmetry_equiv_pos_site_id
_symmetry_equiv_pos_as_xyz
1 'z, y, -x'
2 'y, x, -z'
3 'x, z, -y'
4 'z, x, -y'
5 'y, z, -x'
6 'x, y, -z'
7 'z, -y, x'
8 'y, -x, z'
9 'x, -z, y'
10 'z, -x, y'
11 'y, -z, x'
12 'x, -y, z'
13 '-z, y, x'
14 '-y, x, z'
15 '-x, z, y'
16 '-z, x, y'
17 '-y, z, x'
18 '-x, y, z'
19 '-z, -y, -x'
20 '-y, -x, -z'
21 '-x, -z, -y'
22 '-z, -x, -y'
23 '-y, -z, -x'
24 '-x, -y, -z'
25 '-z, -y, x'
26 '-y, -x, z'
27 '-x, -z, y'
28 '-z, -x, y'
29 '-y, -z, x'
30 '-x, -y, z'
31 '-z, y, -x'
32 '-y, x, -z'
33 '-x, z, -y'
34 '-z, x, -y'
35 '-y, z, -x'
36 '-x, y, -z'
37 'z, -y, -x'
38 'y, -x, -z'
39 'x, -z, -y'
40 'z, -x, -y'
41 'y, -z, -x'
42 'x, -y, -z'
43 'z, y, x'
44 'y, x, z'
45 'x, z, y'
46 'z, x, y'
47 'y, z, x'
48 'x, y, z'
loop_
_atom_type_symbol
_atom_type_oxidation_number
Ti4+ 4
O2- -2
F1- -1
D1+ 1
loop_
_atom_site_label
_atom_site_type_symbol
_atom_site_symmetry_multiplicity
_atom_site_Wyckoff_symbol
_atom_site_fract_x
_atom_site_fract_y
_atom_site_fract_z
_atom_site_B_iso_or_equiv
_atom_site_occupancy
_atom_site_attached_hydrogens
Ti1 Ti4+ 1 a 0 0 0 1.06(2) 0.74(1) 0
O1 O2- 3 d 0 0 0.5 2.55(6) 0.5 0
F1 F1- 3 d 0 0 0.5 2.55(6) 0.5 0
#End of TTdata_163147-ICSD