
#(C) 2019 by FIZ Karlsruhe - Leibniz Institute for Information Infrastructure.  All rights reserved.
data_182961-ICSD
_database_code_ICSD 182961
_audit_creation_date 2012-08-01
_audit_update_record 2013-02-01
_chemical_name_systematic 'Dilithium trititanate'
_chemical_formula_structural '(Li2 (Ti3 O7))1.143'
_chemical_formula_sum 'Li2.286 O8.001 Ti3.429'
_chemical_name_structure_type Li.5TiO2
_exptl_crystal_density_diffrn 3.48
_cell_measurement_temperature 1273.
_publ_section_title

;
Lithium migration at high temperatures in Li4 Ti5 O12 studied by neutron
diffraction
;
loop_
_citation_id
_citation_journal_full
_citation_year
_citation_journal_volume
_citation_page_first
_citation_page_last
_citation_journal_id_ASTM
primary 'Chemistry of Materials' 2011 23 2753 2759 CMATEX
loop_
_publ_author_name
'Laumann, A.'
'Boysen, H.'
'Bremholm, M.'
'Fehr, K.T.'
'Hoelzel, M.'
'Holzapfel, M.'
_cell_length_a 5.0896(2)
_cell_length_b 9.6939(4)
_cell_length_c 2.98152(11)
_cell_angle_alpha 90.
_cell_angle_beta 90.
_cell_angle_gamma 90.
_cell_volume 147.1
_cell_formula_units_Z 1
_symmetry_space_group_name_H-M 'P b n m'
_symmetry_Int_Tables_number 62
_refine_ls_R_factor_all 0.0388
loop_
_symmetry_equiv_pos_site_id
_symmetry_equiv_pos_as_xyz
1 '-x+1/2, y+1/2, z'
2 'x, y, -z+1/2'
3 'x+1/2, -y+1/2, z+1/2'
4 '-x, -y, -z'
5 'x+1/2, -y+1/2, -z'
6 '-x, -y, z+1/2'
7 '-x+1/2, y+1/2, -z+1/2'
8 'x, y, z'
loop_
_atom_type_symbol
_atom_type_oxidation_number
Li1+ 1
Ti4+ 4
O2- -2
Li1+ 1
loop_
_atom_site_label
_atom_site_type_symbol
_atom_site_symmetry_multiplicity
_atom_site_Wyckoff_symbol
_atom_site_fract_x
_atom_site_fract_y
_atom_site_fract_z
_atom_site_B_iso_or_equiv
_atom_site_occupancy
_atom_site_attached_hydrogens
Li1 Li1+ 4 c 0.966(2) 0.1354(17) 0.25 0.032(3) 0.13 0
Ti1 Ti4+ 4 c 0.966(2) 0.1354(17) 0.25 0.032(3) 0.8601 0
O1 O2- 4 c 0.6669(15) 0.2748(8) 0.25 0.040(2) 1. 0
O2 O2- 4 c 0.2071(13) 0.9664(8) 0.25 0.0287(17) 1. 0
Li2 Li1+ 4 c 0.937(20) 0.457(12) 0.25 0.06(3) 0.22 0
Li3 Li1+ 4 c 0.555(9) 0.065(5) 0.25 0.001(9) 0.22 0
#End of TTdata_182961-ICSD