
#(C) 2019 by FIZ Karlsruhe - Leibniz Institute for Information Infrastructure.  All rights reserved.
data_190809-ICSD
_database_code_ICSD 190809
_audit_creation_date 2014-08-01
_chemical_name_systematic 'Lithium manganese oxide (1/2/4)'
_chemical_formula_structural 'Li Mn2 O4'
_chemical_formula_sum 'Li1 Mn2 O4'
_chemical_name_structure_type LiMn2O4
_exptl_crystal_density_diffrn 4.31
_cell_measurement_temperature 293.
_publ_section_title
'Local lattice distortion caused by short range charge ordering in Li Mn2 O4'
loop_
_citation_id
_citation_journal_full
_citation_year
_citation_journal_volume
_citation_page_first
_citation_page_last
_citation_journal_id_ASTM
primary 'Journal of the Physical Society of Japan' 2013 82 094601-1 094601-6
JUPSAU
loop_
_publ_author_name
'Kodama, Katsuaki'
'Igawa, Naoki'
'Shamoto, Shin-ichi'
'Ikeda, Kazutaka'
'Oshita, Hidetoshi'
'Kaneko, Naokatsu'
'Otomo, Toshiya'
'Suzuya, Kentaro'
_cell_length_a 24.6388(3)
_cell_length_b 24.7978(3)
_cell_length_c 8.21781(8)
_cell_angle_alpha 90.
_cell_angle_beta 90.
_cell_angle_gamma 90.
_cell_volume 5020.98
_cell_formula_units_Z 72
_symmetry_space_group_name_H-M 'F d d d Z'
_symmetry_Int_Tables_number 70
_refine_ls_R_factor_all 0.0694
loop_
_symmetry_equiv_pos_site_id
_symmetry_equiv_pos_as_xyz
1 'x+3/4, y+3/4, -z'
2 'x+3/4, -y, z+3/4'
3 '-x, y+3/4, z+3/4'
4 '-x, -y, -z'
5 '-x+1/4, -y+1/4, z'
6 '-x+1/4, y, -z+1/4'
7 'x, -y+1/4, -z+1/4'
8 'x, y, z'
9 'x+3/4, y+1/4, -z+1/2'
10 'x+3/4, -y+1/2, z+1/4'
11 '-x, y+1/4, z+1/4'
12 '-x, -y+1/2, -z+1/2'
13 '-x+1/4, -y+3/4, z+1/2'
14 '-x+1/4, y+1/2, -z+3/4'
15 'x, -y+3/4, -z+3/4'
16 'x, y+1/2, z+1/2'
17 'x+1/4, y+3/4, -z+1/2'
18 'x+1/4, -y, z+1/4'
19 '-x+1/2, y+3/4, z+1/4'
20 '-x+1/2, -y, -z+1/2'
21 '-x+3/4, -y+1/4, z+1/2'
22 '-x+3/4, y, -z+3/4'
23 'x+1/2, -y+1/4, -z+3/4'
24 'x+1/2, y, z+1/2'
25 'x+1/4, y+1/4, -z'
26 'x+1/4, -y+1/2, z+3/4'
27 '-x+1/2, y+1/4, z+3/4'
28 '-x+1/2, -y+1/2, -z'
29 '-x+3/4, -y+3/4, z'
30 '-x+3/4, y+1/2, -z+1/4'
31 'x+1/2, -y+3/4, -z+1/4'
32 'x+1/2, y+1/2, z'
loop_
_atom_type_symbol
_atom_type_oxidation_number
Li1+ 1
Mn3+ 3.1
Mn4+ 4
O2- -2
loop_
_atom_site_label
_atom_site_type_symbol
_atom_site_symmetry_multiplicity
_atom_site_Wyckoff_symbol
_atom_site_fract_x
_atom_site_fract_y
_atom_site_fract_z
_atom_site_B_iso_or_equiv
_atom_site_occupancy
_atom_site_attached_hydrogens
Li1 Li1+ 8 a 0.125 0.125 0.125 0.29(1) 1. 0
Li2 Li1+ 16 f 0.125 0.7898(2) 0.125 0.29(1) 1. 0
Li3 Li1+ 16 e 0.7950(2) 0.125 0.125 0.29(1) 1. 0
Li4 Li1+ 32 h 0.2965(1) 0.3016(1) 0.1162(1) 0.29(1) 1. 0
Mn1 Mn3+ 16 d 0.25 0.25 0.5 0.33(1) 1. 0
Mn2 Mn3+ 32 h 0.0833(1) 0.0836(1) 0.5083(1) 0.33(1) 1. 0
Mn3 Mn3+ 32 h 0.0879(1) 0.3298(1) 0.2512(1) 0.33(1) 1. 0
Mn4 Mn4+ 32 h 0.2517(1) 0.1674(1) 0.2505(1) 0.33(1) 1. 0
Mn5 Mn4+ 32 h 0.1644(1) 0.2458(1) 0.2529(2) 0.33(1) 1. 0
O1 O2- 32 h 0.1744(1) 0.1685(1) 0.2585(2) 0.56(1) 1. 0
O2 O2- 32 h 0.0782(1) 0.0049(1) 0.4818(1) 0.56(1) 1. 0
O3 O2- 32 h 0.0785(1) 0.3312(1) 0.4756(1) 0.56(1) 1. 0
O4 O2- 32 h 0.2526(1) 0.1721(1) 0.4819(1) 0.56(1) 1. 0
O5 O2- 32 h 0.0035(1) 0.0082(1) 0.2487(2) 0.56(1) 1. 0
O6 O2- 32 h 0.2530(1) 0.0897(1) 0.2370(1) 0.56(1) 1. 0
O7 O2- 32 h 0.1627(1) 0.3238(1) 0.2370(2) 0.56(1) 1. 0
O8 O2- 32 h 0.0908(1) 0.2467(1) 0.2279(1) 0.56(1) 1. 0
O9 O2- 32 h 0.0843(1) 0.1610(1) 0.5150(1) 0.56(1) 1. 0
#End of TTdata_190809-ICSD