
#(C) 2019 by FIZ Karlsruhe - Leibniz Institute for Information Infrastructure.  All rights reserved.
data_192476-ICSD
_database_code_ICSD 192476
_audit_creation_date 2015-02-01
_chemical_name_systematic 'Dilithium manganate(IV)'
_chemical_formula_structural 'Li2 (Mn O3)'
_chemical_formula_sum 'Li2 Mn1 O3'
_chemical_name_structure_type Li2MnO3
_exptl_crystal_density_diffrn 3.82
_publ_section_title

;
Synthesis and electrochemical performance of high-capacity 0.34 Li2 Mn O3 *
0.66 Li Mn0.63 Ni0.24 Co0.31 O2 cathode materials using a Couette-Taylor
reactor
;
loop_
_citation_id
_citation_journal_full
_citation_year
_citation_journal_volume
_citation_page_first
_citation_page_last
_citation_journal_id_ASTM
primary 'Materials Research Bulletin' 2014 58 223 228 MRBUAC
loop_
_publ_author_name
'Choi, Mansoo'
'Kim, Hyun-Soo'
'Kim, Jik-Soo'
'Park, Suk-Joon'
'Lee, Young Moo'
'Jin, Bong-Soo'
_cell_length_a 4.9417(5)
_cell_length_b 8.5320(0)
_cell_length_c 5.1208(4)
_cell_angle_alpha 90.
_cell_angle_beta 109.767(2)
_cell_angle_gamma 90.
_cell_volume 203.18
_cell_formula_units_Z 4
_symmetry_space_group_name_H-M 'C 1 2/m 1'
_symmetry_Int_Tables_number 12
_refine_ls_R_factor_all 0.0108
loop_
_symmetry_equiv_pos_site_id
_symmetry_equiv_pos_as_xyz
1 '-x, y, -z'
2 '-x, -y, -z'
3 'x, -y, z'
4 'x, y, z'
5 '-x+1/2, y+1/2, -z'
6 '-x+1/2, -y+1/2, -z'
7 'x+1/2, -y+1/2, z'
8 'x+1/2, y+1/2, z'
loop_
_atom_type_symbol
_atom_type_oxidation_number
O2- -2
Li1+ 1
Mn4+ 4
loop_
_atom_site_label
_atom_site_type_symbol
_atom_site_symmetry_multiplicity
_atom_site_Wyckoff_symbol
_atom_site_fract_x
_atom_site_fract_y
_atom_site_fract_z
_atom_site_B_iso_or_equiv
_atom_site_occupancy
_atom_site_attached_hydrogens
O1 O2- 8 j 0.254 0.32119 0.2233 . 1. 0
O2 O2- 4 i 0.2189 0 0.2273 . 1. 0
Li1 Li1+ 4 h 0 0.3394 0.5 . 1. 0
Li2 Li1+ 2 c 0 0 0.5 . 1. 0
Li3 Li1+ 2 b 0 0.5 0 . 1. 0
Mn1 Mn4+ 4 g 0 0.16708 0 . 1. 0
#End of TTdata_192476-ICSD