
#(C) 2019 by FIZ Karlsruhe - Leibniz Institute for Information Infrastructure.  All rights reserved.
data_192991-ICSD
_database_code_ICSD 192991
_audit_creation_date 2015-02-01
_chemical_name_systematic 'Lithium titanium manganese oxide (1.03/1.07/0.9/4)'
_chemical_formula_structural 'Li1.03 Ti1.07 Mn0.9 O4'
_chemical_formula_sum 'Li1.03 Mn0.9 O4 Ti1.07'
_chemical_name_structure_type Spinel-LiFe5O8
_exptl_crystal_density_diffrn 3.91
_cell_measurement_temperature 293.
_publ_section_title

;
Structural characterization and electrochemical behaviour of Li(4-x)/3
Ti(5-2x)/3 Mnx O4 solid solution with spinel-structure
;
loop_
_citation_id
_citation_journal_full
_citation_year
_citation_journal_volume
_citation_page_first
_citation_page_last
_citation_journal_id_ASTM
primary 'Materials Chemistry and Physics' 2013 140 535 542 MCHPDR
loop_
_publ_author_name
'Martin, P.'
'Lopez, M.L.'
'Pico, C.'
'Veiga, M.L.'
_cell_length_a 8.3575(2)
_cell_length_b 8.3575(2)
_cell_length_c 8.3575(2)
_cell_angle_alpha 90.
_cell_angle_beta 90.
_cell_angle_gamma 90.
_cell_volume 583.75
_cell_formula_units_Z 8
_symmetry_space_group_name_H-M 'P 43 3 2'
_symmetry_Int_Tables_number 212
_refine_ls_R_factor_all 0.0435
loop_
_symmetry_equiv_pos_site_id
_symmetry_equiv_pos_as_xyz
1 'z+1/4, y+3/4, -x+3/4'
2 '-z+3/4, y+1/4, x+3/4'
3 'y+1/4, x+3/4, -z+3/4'
4 '-y+3/4, x+1/4, z+3/4'
5 'x+1/4, z+3/4, -y+3/4'
6 '-x+3/4, z+1/4, y+3/4'
7 'z+3/4, -y+3/4, x+1/4'
8 '-z+1/4, -y+1/4, -x+1/4'
9 'y+3/4, -x+3/4, z+1/4'
10 '-y+1/4, -x+1/4, -z+1/4'
11 'x+3/4, -z+3/4, y+1/4'
12 '-x+1/4, -z+1/4, -y+1/4'
13 '-y+1/2, -z, x+1/2'
14 '-y, z+1/2, -x+1/2'
15 'y+1/2, -z+1/2, -x'
16 'y, z, x'
17 'z+1/2, -x+1/2, -y'
18 '-z+1/2, -x, y+1/2'
19 '-z, x+1/2, -y+1/2'
20 'z, x, y'
21 '-x+1/2, -y, z+1/2'
22 '-x, y+1/2, -z+1/2'
23 'x+1/2, -y+1/2, -z'
24 'x, y, z'
loop_
_atom_type_symbol
_atom_type_oxidation_number
Li1+ 1
Mn2+ 2
Ti4+ 4
Mn3+ 3
Li1+ 1
Mn3+ 3.33
Ti4+ 4
O2- -2
loop_
_atom_site_label
_atom_site_type_symbol
_atom_site_symmetry_multiplicity
_atom_site_Wyckoff_symbol
_atom_site_fract_x
_atom_site_fract_y
_atom_site_fract_z
_atom_site_B_iso_or_equiv
_atom_site_occupancy
_atom_site_attached_hydrogens
Li1 Li1+ 8 c -0.0017(9) -0.0017(9) -0.0017(9) . 0.793(1) 0
Mn1 Mn2+ 8 c -0.0017(9) -0.0017(9) -0.0017(9) . 0.1 0
Ti1 Ti4+ 8 c -0.0017(9) -0.0017(9) -0.0017(9) . 0.107(3) 0
Mn2 Mn3+ 4 b 0.625 0.625 0.625 . 1. 0
Li2 Li1+ 12 d 0.125 0.3781(9) 0.8719(1) . 0.158(1) 0
Mn3 Mn3+ 12 d 0.125 0.3781(9) 0.8719(1) . 0.2 0
Ti2 Ti4+ 12 d 0.125 0.3781(9) 0.8719(1) . 0.642(5) 0
O1 O2- 8 c 0.3848(0) 0.3848(0) 0.3848(0) . 1. 0
O2 O2- 24 e 0.1178(6) 0.1034(5) 0.3884(6) . 1. 0
#End of TTdata_192991-ICSD