
#(C) 2019 by FIZ Karlsruhe - Leibniz Institute for Information Infrastructure.  All rights reserved.
data_202639-ICSD
_database_code_ICSD 202639
_audit_creation_date 1989-06-19
_audit_update_record 2009-02-01
_chemical_name_systematic 'Dilithium manganate(IV)'
_chemical_formula_structural 'Li2 (Mn O3)'
_chemical_formula_sum 'Li2 Mn1 O3'
_chemical_name_structure_type Li2MnO3
_exptl_crystal_density_diffrn 3.88
_cell_measurement_temperature 293.
_publ_section_title 'Crystallographic and magnetic structure of Li2 Mn O3'
loop_
_citation_id
_citation_journal_full
_citation_year
_citation_journal_volume
_citation_page_first
_citation_page_last
_citation_journal_id_ASTM
primary 'Journal of Solid State Chemistry' 1988 75 90 98 JSSCBI
loop_
_publ_author_name
'Strobel, P.'
'Lambert Andron, B.'
_cell_length_a 4.937(1)
_cell_length_b 8.532(1)
_cell_length_c 5.030(2)
_cell_angle_alpha 90.
_cell_angle_beta 109.46(3)
_cell_angle_gamma 90.
_cell_volume 199.77
_cell_formula_units_Z 4
_symmetry_space_group_name_H-M 'C 1 2/m 1'
_symmetry_Int_Tables_number 12
_refine_ls_R_factor_all 0.02
loop_
_symmetry_equiv_pos_site_id
_symmetry_equiv_pos_as_xyz
1 '-x, y, -z'
2 '-x, -y, -z'
3 'x, -y, z'
4 'x, y, z'
5 '-x+1/2, y+1/2, -z'
6 '-x+1/2, -y+1/2, -z'
7 'x+1/2, -y+1/2, z'
8 'x+1/2, y+1/2, z'
loop_
_atom_type_symbol
_atom_type_oxidation_number
Mn4+ 4
Li1+ 1
O2- -2
loop_
_atom_site_label
_atom_site_type_symbol
_atom_site_symmetry_multiplicity
_atom_site_Wyckoff_symbol
_atom_site_fract_x
_atom_site_fract_y
_atom_site_fract_z
_atom_site_B_iso_or_equiv
_atom_site_occupancy
_atom_site_attached_hydrogens
Mn1 Mn4+ 4 g 0 0.16708(2) 0 . 1. 0
Li1 Li1+ 2 b 0 0.5 0 0.28(3) 1. 0
Li2 Li1+ 2 c 0 0 0.5 . 1. 0
Li3 Li1+ 4 h 0 0.6606(3) 0.5 . 1. 0
O1 O2- 4 i 0.2189(2) 0 0.2273(2) . 1. 0
O2 O2- 8 j 0.2540(1) 0.32119(7) 0.2233(1) . 1. 0
loop_
_atom_site_aniso_label
_atom_site_aniso_type_symbol
_atom_site_aniso_beta_11
_atom_site_aniso_beta_22
_atom_site_aniso_beta_33
_atom_site_aniso_beta_12
_atom_site_aniso_beta_13
_atom_site_aniso_beta_23
Mn1 Mn4+ 0.00251(4) 0.00063(2) 0.00365(4) 0 0.00199(7) 0
Li2 Li1+ 0.013(1) 0.0047(4) 0.0103(10) 0 0.013(2) 0
Li3 Li1+ 0.012(1) 0.0030(3) 0.0101(9) 0 0.002(1) 0
O1 O2- 0.0046(2) 0.00104(7) 0.0053(2) 0 0.0016(3) 0
O2 O2- 0.0048(2) 0.00142(5) 0.0050(2) -.0009(1) 0.0039(3) -.0007(1)
#End of TTdata_202639-ICSD