
#(C) 2019 by FIZ Karlsruhe - Leibniz Institute for Information Infrastructure.  All rights reserved.
data_202765-ICSD
_database_code_ICSD 202765
_audit_creation_date 1989-12-04
_chemical_name_systematic 'Titanium dioxide -II'
_chemical_formula_structural 'Ti O2'
_chemical_formula_sum 'O2 Ti1'
_chemical_name_structure_type PbO2-alpha
_exptl_crystal_density_diffrn 4.34
_publ_section_title 'Ti O2-II. Ambient pressure and structure refinement'
loop_
_citation_id
_citation_journal_full
_citation_year
_citation_journal_volume
_citation_page_first
_citation_page_last
_citation_journal_id_ASTM
primary 'Materials Research Bulletin' 1988 23 743 753 MRBUAC
loop_
_publ_author_name
'Grey, I.E.'
'Li, C.'
'Madsen, I.C.'
'Braunshausen, G.'
_cell_length_a 4.5318(7)
_cell_length_b 5.5019(7)
_cell_length_c 4.9063(6)
_cell_angle_alpha 90.
_cell_angle_beta 90.
_cell_angle_gamma 90.
_cell_volume 122.33
_cell_formula_units_Z 4
_symmetry_space_group_name_H-M 'P b c n'
_symmetry_Int_Tables_number 60
_refine_ls_R_factor_all 0.025
loop_
_symmetry_equiv_pos_site_id
_symmetry_equiv_pos_as_xyz
1 'x, -y, z+1/2'
2 '-x+1/2, y+1/2, z'
3 'x+1/2, y+1/2, -z+1/2'
4 '-x, -y, -z'
5 '-x, y, -z+1/2'
6 'x+1/2, -y+1/2, -z'
7 '-x+1/2, -y+1/2, z+1/2'
8 'x, y, z'
loop_
_atom_type_symbol
_atom_type_oxidation_number
Ti4+ 4
O2- -2
loop_
_atom_site_label
_atom_site_type_symbol
_atom_site_symmetry_multiplicity
_atom_site_Wyckoff_symbol
_atom_site_fract_x
_atom_site_fract_y
_atom_site_fract_z
_atom_site_B_iso_or_equiv
_atom_site_occupancy
_atom_site_attached_hydrogens
Ti1 Ti4+ 4 c 0 0.1704(3) 0.25 0.68(4) 1. 0
O1 O2- 8 d 0.2716(6) 0.3814(7) 0.4142(7) 0.80(7) 1. 0
#End of TTdata_202765-ICSD