
#(C) 2019 by FIZ Karlsruhe - Leibniz Institute for Information Infrastructure.  All rights reserved.
data_20361-ICSD
_database_code_ICSD 20361
_audit_creation_date 1986-09-24
_audit_update_record 2006-04-01
_chemical_name_systematic 'Dititanium(III) titanium oxide'
_chemical_formula_structural 'Ti3 O5'
_chemical_formula_sum 'O5 Ti3'
_chemical_name_structure_type Pseudobrookite-Fe2TiO5
_chemical_name_mineral Anosovite
_exptl_crystal_density_diffrn 4.31
_publ_section_title

;
The crystal structure and the chemical formula of titanic oxide Ti3 O5
(Anosovite)
;
loop_
_citation_id
_citation_journal_full
_citation_year
_citation_journal_volume
_citation_page_first
_citation_page_last
_citation_journal_id_ASTM
primary 'Doklady Akademii Nauk SSSR' 1951 77 411 414 DANKAS
loop_
_publ_author_name
'Rusakov, A.A.'
'Zhdanov, G.S.'
_cell_length_a 3.747
_cell_length_b 9.465
_cell_length_c 9.715
_cell_angle_alpha 90.
_cell_angle_beta 90.
_cell_angle_gamma 90.
_cell_volume 344.55
_cell_formula_units_Z 4
_symmetry_space_group_name_H-M 'C m c m'
_symmetry_Int_Tables_number 63
loop_
_symmetry_equiv_pos_site_id
_symmetry_equiv_pos_as_xyz
1 '-x, y, -z+1/2'
2 '-x, -y, z+1/2'
3 '-x, y, z'
4 '-x, -y, -z'
5 'x, -y, z+1/2'
6 'x, y, -z+1/2'
7 'x, -y, -z'
8 'x, y, z'
9 '-x+1/2, y+1/2, -z+1/2'
10 '-x+1/2, -y+1/2, z+1/2'
11 '-x+1/2, y+1/2, z'
12 '-x+1/2, -y+1/2, -z'
13 'x+1/2, -y+1/2, z+1/2'
14 'x+1/2, y+1/2, -z+1/2'
15 'x+1/2, -y+1/2, -z'
16 'x+1/2, y+1/2, z'
loop_
_atom_type_symbol
_atom_type_oxidation_number
Ti4+ 4
Ti3+ 3
O2- -2
loop_
_atom_site_label
_atom_site_type_symbol
_atom_site_symmetry_multiplicity
_atom_site_Wyckoff_symbol
_atom_site_fract_x
_atom_site_fract_y
_atom_site_fract_z
_atom_site_B_iso_or_equiv
_atom_site_occupancy
_atom_site_attached_hydrogens
Ti1 Ti4+ 4 c 0 0.195 0.25 . 1. 0
Ti2 Ti3+ 8 f 0 0.132 0.561 . 1. 0
O1 O2- 4 c 0 0.777 0.25 . 1. 0
O2 O2- 8 f 0 0.043 0.116 . 1. 0
O3 O2- 8 f 0 0.304 0.062 . 1. 0
#End of TTdata_20361-ICSD