
#(C) 2019 by FIZ Karlsruhe - Leibniz Institute for Information Infrastructure.  All rights reserved.
data_252035-ICSD
_database_code_ICSD 252035
_audit_creation_date 2016-02-01
_chemical_name_systematic 'Hemilithium dimanganate(III/IV)'
_chemical_formula_structural 'Li0.5 Mn2 O4'
_chemical_formula_sum 'Li0.5 Mn2 O4'
_exptl_crystal_density_diffrn 4.35
_cell_measurement_temperature 293.
_publ_section_title

;
Spinel materials for Li-ion batteries: new insights obtained by operando
neutron and synchrotron X-ray diffraction
;
loop_
_citation_id
_citation_journal_full
_citation_year
_citation_journal_volume
_citation_page_first
_citation_page_last
_citation_journal_id_ASTM
primary

;
Acta Crystallographica, Section B: Structural Science, Crystal Engineering and
Materials
; 2015 71 688 701 ACSBDA
loop_
_publ_author_name
'Bianchini, Matteo'
'Fauth, Francois'
'Suard, Emmanuelle'
'Leriche, Jean-Bernard'
'Masquelier, Christian'
'Croguennec, Laurence'
_cell_length_a 8.152889(13)
_cell_length_b 8.152889(13)
_cell_length_c 8.152889(13)
_cell_angle_alpha 90.
_cell_angle_beta 90.
_cell_angle_gamma 90.
_cell_volume 541.92
_cell_formula_units_Z 8
_symmetry_space_group_name_H-M 'P 21 3'
_symmetry_Int_Tables_number 198
_refine_ls_R_factor_all 0.047
loop_
_symmetry_equiv_pos_site_id
_symmetry_equiv_pos_as_xyz
1 '-z+1/2, -x, y+1/2'
2 '-y+1/2, -z, x+1/2'
3 '-x+1/2, -y, z+1/2'
4 '-z, x+1/2, -y+1/2'
5 '-y, z+1/2, -x+1/2'
6 '-x, y+1/2, -z+1/2'
7 'z+1/2, -x+1/2, -y'
8 'y+1/2, -z+1/2, -x'
9 'x+1/2, -y+1/2, -z'
10 'z, x, y'
11 'y, z, x'
12 'x, y, z'
loop_
_atom_type_symbol
_atom_type_oxidation_number
Li1+ 1
Mn3+ 3
Mn4+ 4
O2- -2
loop_
_atom_site_label
_atom_site_type_symbol
_atom_site_symmetry_multiplicity
_atom_site_Wyckoff_symbol
_atom_site_fract_x
_atom_site_fract_y
_atom_site_fract_z
_atom_site_B_iso_or_equiv
_atom_site_occupancy
_atom_site_attached_hydrogens
Li1 Li1+ 4 a 0.011 0.011 0.011 0.01267 1. 0
Mn1 Mn3+ 4 a 0.626(2) 0.626(2) 0.626(2) 0.03257 1. 0
Mn2 Mn4+ 12 b 0.1284(20) 0.3798(13) -0.1274(14) 0.03257 1. 0
O1 O2- 4 a 0.387(7) 0.387(7) 0.387(7) 0.02956 1. 0
O2 O2- 12 b 0.142(9) -0.135(6) 0.136(6) 0.02956 1. 0
O3 O2- 4 a 0.869(6) 0.869(6) 0.869(6) 0.02956 1. 0
O4 O2- 12 b 0.104(6) 0.119(5) 0.396(6) 0.02956 1. 0
#End of TTdata_252035-ICSD