
#(C) 2019 by FIZ Karlsruhe - Leibniz Institute for Information Infrastructure.  All rights reserved.
data_280515-ICSD
_database_code_ICSD 280515
_audit_creation_date 2002-04-01
_chemical_name_systematic 'Lithium manganese(I) manganese oxide (0.91/0.09/2/4)'
_chemical_formula_structural '(Li0.91 Mn0.09) Mn2 O4'
_chemical_formula_sum 'Li0.91 Mn2.09 O4'
_chemical_name_structure_type CdMn2O4
_exptl_crystal_density_diffrn 4.31
_publ_section_title '(Li0.91 Mn0.09) Mn2 O4'
loop_
_citation_id
_citation_journal_full
_citation_year
_citation_journal_volume
_citation_page_first
_citation_page_last
_citation_journal_id_ASTM
primary 'Acta Crystallographica, Section C: Crystal Structure Communications'
2001 57 331 332 ACSCEE
loop_
_publ_author_name
'Bjoerk, H.'
'Dabkowska, H.A.'
'Greedan, J.E.'
'Gustafsson, T.'
'Thomas, J.O.'
_cell_length_a 5.7502(9)
_cell_length_b 5.7502(9)
_cell_length_c 8.637(3)
_cell_angle_alpha 90.
_cell_angle_beta 90.
_cell_angle_gamma 90.
_cell_volume 285.58
_cell_formula_units_Z 4
_symmetry_space_group_name_H-M 'I 41/a m d Z'
_symmetry_Int_Tables_number 141
_refine_ls_R_factor_all 0.038
loop_
_symmetry_equiv_pos_site_id
_symmetry_equiv_pos_as_xyz
1 'y+1/4, x+3/4, -z+1/4'
2 'y+1/4, -x+3/4, -z+1/4'
3 'x, y+1/2, -z'
4 'x, -y, -z'
5 '-y+3/4, x+3/4, -z+1/4'
6 '-y+3/4, -x+3/4, -z+1/4'
7 '-x, y+1/2, -z'
8 '-x, -y, -z'
9 '-y+3/4, -x+1/4, z+3/4'
10 '-y+3/4, x+1/4, z+3/4'
11 '-x, -y+1/2, z'
12 '-x, y, z'
13 'y+1/4, -x+1/4, z+3/4'
14 'y+1/4, x+1/4, z+3/4'
15 'x, -y+1/2, z'
16 'x, y, z'
17 'y+3/4, x+1/4, -z+3/4'
18 'y+3/4, -x+1/4, -z+3/4'
19 'x+1/2, y, -z+1/2'
20 'x+1/2, -y+1/2, -z+1/2'
21 '-y+1/4, x+1/4, -z+3/4'
22 '-y+1/4, -x+1/4, -z+3/4'
23 '-x+1/2, y, -z+1/2'
24 '-x+1/2, -y+1/2, -z+1/2'
25 '-y+1/4, -x+3/4, z+1/4'
26 '-y+1/4, x+3/4, z+1/4'
27 '-x+1/2, -y, z+1/2'
28 '-x+1/2, y+1/2, z+1/2'
29 'y+3/4, -x+3/4, z+1/4'
30 'y+3/4, x+3/4, z+1/4'
31 'x+1/2, -y, z+1/2'
32 'x+1/2, y+1/2, z+1/2'
loop_
_atom_type_symbol
_atom_type_oxidation_number
Mn3+ 3.5
O2- -2
Mn1+ 1
Li1+ 1
loop_
_atom_site_label
_atom_site_type_symbol
_atom_site_symmetry_multiplicity
_atom_site_Wyckoff_symbol
_atom_site_fract_x
_atom_site_fract_y
_atom_site_fract_z
_atom_site_B_iso_or_equiv
_atom_site_occupancy
_atom_site_attached_hydrogens
Mn1 Mn3+ 8 d 0.5 0 0 . 1. 0
O1 O2- 16 h 0.2762(2) 0.25 0.01191(17) . 1. 0
Mn2 Mn1+ 4 a 0 0.75 0.125 0.0190(8) 0.093(3) 0
Li1 Li1+ 4 a 0 0.75 0.125 0.0190(8) 0.907(3) 0
loop_
_atom_site_aniso_label
_atom_site_aniso_type_symbol
_atom_site_aniso_U_11
_atom_site_aniso_U_22
_atom_site_aniso_U_33
_atom_site_aniso_U_12
_atom_site_aniso_U_13
_atom_site_aniso_U_23
Mn1 Mn3+ 0.0079(2) 0.0070(2) 0.0159(2) 0 0 -.00166(10)
O1 O2- 0.0125(8) 0.0125(9) 0.0336(9) 0 -.0028(7) 0
#End of TTdata_280515-ICSD