
#(C) 2019 by FIZ Karlsruhe - Leibniz Institute for Information Infrastructure.  All rights reserved.
data_51033-ICSD
_database_code_ICSD 51033
_audit_creation_date 2001-07-16
_chemical_name_systematic 'Lithium titanium oxide (0.54/2.86/6)'
_chemical_formula_structural '(Li0.54 Ti2.86) O6'
_chemical_formula_sum 'Li0.54 O6 Ti2.86'
_exptl_crystal_density_diffrn 3.86
_cell_measurement_temperature 295.
_publ_section_title
'New phases formed in the Li-Ti-O system under reducing conditions'
loop_
_citation_id
_citation_journal_full
_citation_year
_citation_journal_volume
_citation_page_first
_citation_page_last
_citation_journal_id_ASTM
primary 'Journal of Solid State Chemistry' 1998 138 74 86 JSSCBI
loop_
_publ_author_name
'Grey, I.E.'
'Cranswick, L.M.D.'
'Li, C.'
'Bursill, L.A.'
'Peng, J.-L.'
_cell_length_a 4.8948(3)
_cell_length_b 14.101(1)
_cell_length_c 2.9531(2)
_cell_angle_alpha 90.
_cell_angle_beta 90.
_cell_angle_gamma 92.146(3)
_cell_volume 203.68
_cell_formula_units_Z 2
_symmetry_space_group_name_H-M 'A 1 1 2/m'
_symmetry_Int_Tables_number 12
_refine_ls_R_factor_all 0.041
loop_
_symmetry_equiv_pos_site_id
_symmetry_equiv_pos_as_xyz
1 'x, y, -z'
2 '-x, -y, -z'
3 '-x, -y, z'
4 'x, y, z'
5 'x, y+1/2, -z+1/2'
6 '-x, -y+1/2, -z+1/2'
7 '-x, -y+1/2, z+1/2'
8 'x, y+1/2, z+1/2'
loop_
_atom_type_symbol
_atom_type_oxidation_number
Ti4+ 4
Li1+ 1
O2- -2
loop_
_atom_site_label
_atom_site_type_symbol
_atom_site_symmetry_multiplicity
_atom_site_Wyckoff_symbol
_atom_site_fract_x
_atom_site_fract_y
_atom_site_fract_z
_atom_site_B_iso_or_equiv
_atom_site_occupancy
_atom_site_attached_hydrogens
Ti1 Ti4+ 2 a 0 0 0 0.5(1) 1. 0
Ti2 Ti4+ 4 i 0.478(1) 0.3450(4) 0 0.9(1) 0.93 0
Li1 Li1+ 4 i 0.478(1) 0.3450(4) 0 0.9(1) 0.07 0
Li2 Li1+ 4 i 0.06(1) 0.220(4) 0 2.0(2) 0.20(3) 0
O1 O2- 4 i 0.7000(6) 0.2272(2) 0 0.32(5) 1. 0
O2 O2- 4 i 0.3051(6) 0.0974(3) 0 0.78(6) 1. 0
O3 O2- 4 i 0.1855(4) 0.4330(2) 0 0.66(5) 1. 0
#End of TTdata_51033-ICSD