
#(C) 2019 by FIZ Karlsruhe - Leibniz Institute for Information Infrastructure, and the U.S. Secretary of
#Commerce on behalf of the United States.  All rights reserved.
data_672194-ICSD
_database_code_ICSD 672194
_audit_creation_date 2017-08-01
_chemical_name_systematic 'Manganese Fluoride (1/2)'
_chemical_formula_structural 'Mn F2'
_chemical_formula_sum 'F2 Mn1'
_chemical_name_structure_type PbCl2
_exptl_crystal_density_diffrn 5.14
_cell_measurement_pressure 14100000.
_publ_section_title

;
First-principles study of pressure-induced structural phase transitions in
MnF2
;
loop_
_citation_id
_citation_journal_full
_citation_year
_citation_journal_volume
_citation_page_first
_citation_page_last
_citation_journal_id_ASTM
primary 'Physical Chemistry Chemical Physics' 2016 18 33250 33263 PPCPFQ
loop_
_publ_author_name
'Lopez-Moreno, S.'
'Romero, A.H.'
'Mejia-Lopez, J.'
'Munoz, A.'
_cell_length_a 5.5167
_cell_length_b 3.3355
_cell_length_c 6.5214
_cell_angle_alpha 90
_cell_angle_beta 90
_cell_angle_gamma 90
_cell_volume 120.
_cell_formula_units_Z 4
_symmetry_space_group_name_H-M 'P n m a'
_symmetry_Int_Tables_number 62
loop_
_symmetry_equiv_pos_site_id
_symmetry_equiv_pos_as_xyz
1 'x+1/2, y, -z+1/2'
2 'x, -y+1/2, z'
3 '-x+1/2, y+1/2, z+1/2'
4 '-x, -y, -z'
5 '-x+1/2, -y, z+1/2'
6 '-x, y+1/2, -z'
7 'x+1/2, -y+1/2, -z+1/2'
8 'x, y, z'
loop_
_atom_type_symbol
_atom_type_oxidation_number
Mn0+ 0
F0+ 0
loop_
_atom_site_label
_atom_site_type_symbol
_atom_site_symmetry_multiplicity
_atom_site_Wyckoff_symbol
_atom_site_fract_x
_atom_site_fract_y
_atom_site_fract_z
_atom_site_B_iso_or_equiv
_atom_site_occupancy
_atom_site_attached_hydrogens
Mn1 Mn0+ 4 c 0.7524 0.25 0.1131 1. 1. 0
F1 F0+ 4 c 0.8561 0.25 0.4255 1. 1. 0
F2 F0+ 4 c 0.9789 0.25 0.8346 1. 1. 0
#End of TTdata_672194-ICSD