
#(C) 2019 by FIZ Karlsruhe - Leibniz Institute for Information Infrastructure.  All rights reserved.
data_8262-ICSD
_database_code_ICSD 8262
_audit_creation_date 1980-01-01
_audit_update_record 1985-07-05
_chemical_name_systematic 'Lithium titanium oxide (0.6/0.9/2)'
_chemical_formula_structural 'Li0.57 Ti0.86 O2'
_chemical_formula_sum 'Li0.57 O2 Ti0.86'
_chemical_name_structure_type Li.5TiO2
_exptl_crystal_density_diffrn 3.64
_publ_section_title
'Crystal structure of the Li ion conductor dilithium trititanate, Li2 Ti3 O7'
loop_
_citation_id
_citation_journal_full
_citation_year
_citation_journal_volume
_citation_page_first
_citation_page_last
_citation_journal_id_ASTM
primary

;
Acta Crystallographica, Section B: Structural Crystallography and Crystal
Chemistry
; 1979 35 798 800 ACBCAR
loop_
_publ_author_name
'Morosin, B.'
'Mikkelsen, J.C.Jr.'
_cell_length_a 5.016(3)
_cell_length_b 9.543(5)
_cell_length_c 2.945(2)
_cell_angle_alpha 90.
_cell_angle_beta 90.
_cell_angle_gamma 90.
_cell_volume 140.97
_cell_formula_units_Z 4
_symmetry_space_group_name_H-M 'P b n m'
_symmetry_Int_Tables_number 62
_refine_ls_R_factor_all 0.058
loop_
_symmetry_equiv_pos_site_id
_symmetry_equiv_pos_as_xyz
1 '-x+1/2, y+1/2, z'
2 'x, y, -z+1/2'
3 'x+1/2, -y+1/2, z+1/2'
4 '-x, -y, -z'
5 'x+1/2, -y+1/2, -z'
6 '-x, -y, z+1/2'
7 '-x+1/2, y+1/2, -z+1/2'
8 'x, y, z'
loop_
_atom_type_symbol
_atom_type_oxidation_number
Li1+ 1
Ti4+ 4
O2- -2
Li1+ 1
loop_
_atom_site_label
_atom_site_type_symbol
_atom_site_symmetry_multiplicity
_atom_site_Wyckoff_symbol
_atom_site_fract_x
_atom_site_fract_y
_atom_site_fract_z
_atom_site_B_iso_or_equiv
_atom_site_occupancy
_atom_site_attached_hydrogens
Li1 Li1+ 4 c -.03244(8) 0.13938(4) 0.25 . 0.14 0
Ti1 Ti4+ 4 c -.03244(8) 0.13938(4) 0.25 . 0.86 0
O1 O2- 4 c 0.6742(3) 0.2744(1) 0.25 . 1. 0
O2 O2- 4 c 0.2030(2) -.0331(1) 0.25 . 1. 0
Li2 Li1+ 4 c -.060(4) 0.451(2) 0.25 0.016(2) 0.215 0
Li3 Li1+ 4 c 0.532(7) 0.050(4) 0.25 0.025(6) 0.215 0
loop_
_atom_site_aniso_label
_atom_site_aniso_type_symbol
_atom_site_aniso_U_11
_atom_site_aniso_U_22
_atom_site_aniso_U_33
_atom_site_aniso_U_12
_atom_site_aniso_U_13
_atom_site_aniso_U_23
Li1 Li1+ 0.0129(3) 0.0108(3) 0.0166(3) 0.00052(7) 0 0
Ti1 Ti4+ 0.0129(3) 0.0108(3) 0.0166(3) 0.00052(7) 0 0
O1 O2- 0.0171(5) 0.0131(5) 0.0149(4) 0.0059(3) 0 0
O2 O2- 0.0097(4) 0.0142(4) 0.0117(4) 0.0000(3) 0 0
#End of TTdata_8262-ICSD