
#(C) 2019 by FIZ Karlsruhe - Leibniz Institute for Information Infrastructure.  All rights reserved.
data_82993-ICSD
_database_code_ICSD 82993
_audit_creation_date 1998-06-26
_chemical_name_systematic 'Lithium manganate(III)'
_chemical_formula_structural 'Li (Mn O2)'
_chemical_formula_sum 'Li1 Mn1 O2'
_chemical_name_structure_type NaNiO2(mS8)
_exptl_crystal_density_diffrn 4.22
_publ_section_title

;
Synthesis of layered Li Mn O2 as an electrode for rechargeable lithium
batteries
;
loop_
_citation_id
_citation_journal_full
_citation_year
_citation_journal_volume
_citation_page_first
_citation_page_last
_citation_journal_id_ASTM
primary 'Nature (London, United Kingdom)' 1996 381 499 500 NATUAS
loop_
_publ_author_name
'Armstrong, A.R.'
'Bruce, P.G.'
_cell_length_a 5.4387(7)
_cell_length_b 2.80857(4)
_cell_length_c 5.3878(6)
_cell_angle_alpha 90.
_cell_angle_beta 116.006(3)
_cell_angle_gamma 90.
_cell_volume 73.97
_cell_formula_units_Z 2
_symmetry_space_group_name_H-M 'C 1 2/m 1'
_symmetry_Int_Tables_number 12
_refine_ls_R_factor_all 0.006
loop_
_symmetry_equiv_pos_site_id
_symmetry_equiv_pos_as_xyz
1 '-x, y, -z'
2 '-x, -y, -z'
3 'x, -y, z'
4 'x, y, z'
5 '-x+1/2, y+1/2, -z'
6 '-x+1/2, -y+1/2, -z'
7 'x+1/2, -y+1/2, z'
8 'x+1/2, y+1/2, z'
loop_
_atom_type_symbol
_atom_type_oxidation_number
Li1+ 1
Mn3+ 3
Li1+ 1
Mn3+ 3
O2- -2
loop_
_atom_site_label
_atom_site_type_symbol
_atom_site_symmetry_multiplicity
_atom_site_Wyckoff_symbol
_atom_site_fract_x
_atom_site_fract_y
_atom_site_fract_z
_atom_site_B_iso_or_equiv
_atom_site_occupancy
_atom_site_attached_hydrogens
Li1 Li1+ 2 d 0 0.5 0.5 2.4(2) 0.91(4) 0
Mn1 Mn3+ 2 d 0 0.5 0.5 2.4(2) 0.09(4) 0
Li2 Li1+ 2 a 0 0 0 0.72(6) 0.10(3) 0
Mn2 Mn3+ 2 a 0 0 0 0.72(6) 0.90(3) 0
O1 O2- 4 i 0.2723(3) 0 0.7706(2) 0.68(4) 1. 0
#End of TTdata_82993-ICSD