
#(C) 2019 by FIZ Karlsruhe - Leibniz Institute for Information Infrastructure.  All rights reserved.
data_62655-ICSD
_database_code_ICSD 62655
_audit_creation_date 1988-02-22
_audit_update_record 2012-02-01
_chemical_name_systematic 'Lithium manganese(III) fluoride'
_chemical_formula_structural 'Li Mn F4'
_chemical_formula_sum 'F4 Li1 Mn1'
_chemical_name_structure_type LiMnF4
_exptl_crystal_density_diffrn 3.47
_publ_section_title

;
Der erste Di-Rutil-Vertreter: Li Mn F4. (Mit einer Bemerkung ueber Li Co F4 ).
;
loop_
_citation_id
_citation_journal_full
_citation_year
_citation_journal_volume
_citation_page_first
_citation_page_last
_citation_journal_id_ASTM
primary 'Zeitschrift fuer Anorganische und Allgemeine Chemie (1950) (DE)' 1987
546 113 121 ZAACAB
loop_
_publ_author_name
'Wandner, K.H.'
'Hoppe, R.'
_cell_length_a 5.423
_cell_length_b 4.64
_cell_length_c 5.706
_cell_angle_alpha 90.
_cell_angle_beta 113.16
_cell_angle_gamma 90.
_cell_volume 132.01
_cell_formula_units_Z 2
_symmetry_space_group_name_H-M 'P 1 21/c 1'
_symmetry_Int_Tables_number 14
_refine_ls_R_factor_all 0.037
loop_
_symmetry_equiv_pos_site_id
_symmetry_equiv_pos_as_xyz
1 'x, -y+1/2, z+1/2'
2 '-x, -y, -z'
3 '-x, y+1/2, -z+1/2'
4 'x, y, z'
loop_
_atom_type_symbol
_atom_type_oxidation_number
Li1+ 1
Mn3+ 3
F1- -1
loop_
_atom_site_label
_atom_site_type_symbol
_atom_site_symmetry_multiplicity
_atom_site_Wyckoff_symbol
_atom_site_fract_x
_atom_site_fract_y
_atom_site_fract_z
_atom_site_B_iso_or_equiv
_atom_site_occupancy
_atom_site_attached_hydrogens
Li1 Li1+ 2 d 0.5 0.5 0 . 1. 0
Mn1 Mn3+ 2 a 0 0 0 . 1. 0
F1 F1- 4 e 0.8514(3) 0.7813(3) 0.6404(3) . 1. 0
F2 F1- 4 e 0.3232(3) 0.6819(3) 0.6386(3) . 1. 0
loop_
_atom_site_aniso_label
_atom_site_aniso_type_symbol
_atom_site_aniso_U_11
_atom_site_aniso_U_22
_atom_site_aniso_U_33
_atom_site_aniso_U_12
_atom_site_aniso_U_13
_atom_site_aniso_U_23
Li1 Li1+ 0.0143(11) 0.0247(11) 0.0167(11) 0.0020(11) 0.002(1) -.0051(11)
Mn1 Mn3+ 0.0073(2) 0.0074(2) 0.0071(2) 0.0003(2) 0.0036(2) 0.0010(2)
F1 F1- 0.0123(6) 0.0130(6) 0.0114(6) 0.0014(5) 0.0048(5) -.0038(5)
F2 F1- 0.0111(6) 0.0135(6) 0.0134(6) -.0026(5) 0.0051(5) 0.0001(5)
#End of TTdata_62655-ICSD