
#(C) 2019 by FIZ Karlsruhe - Leibniz Institute for Information Infrastructure.  All rights reserved.
data_180561-ICSD
_database_code_ICSD 180561
_audit_creation_date 2011-08-01
_chemical_name_systematic 'Lithium peroxide - II'
_chemical_formula_structural 'Li O2'
_chemical_formula_sum 'Li1 O2'
_exptl_crystal_density_diffrn 2.24
_publ_section_title
'Structure, mechanical stability and chemical bond in alkali metal oxides'
loop_
_citation_id
_citation_journal_full
_citation_year
_citation_journal_volume
_citation_page_first
_citation_page_last
_citation_journal_id_ASTM
primary 'Journal of Structural Chemistry' 2010 51 1005 1013 JSTCAM
loop_
_publ_author_name
'Zhuravlev, Yu.N.'
'Obolonskaya, O.S.'
_cell_length_a 3.992
_cell_length_b 4.877
_cell_length_c 2.961
_cell_angle_alpha 90.
_cell_angle_beta 90.
_cell_angle_gamma 90.
_cell_volume 57.65
_cell_formula_units_Z 2
_symmetry_space_group_name_H-M 'P n n m'
_symmetry_Int_Tables_number 58
loop_
_symmetry_equiv_pos_site_id
_symmetry_equiv_pos_as_xyz
1 'x+1/2, -y+1/2, z+1/2'
2 '-x+1/2, y+1/2, z+1/2'
3 'x, y, -z'
4 '-x, -y, -z'
5 '-x+1/2, y+1/2, -z+1/2'
6 'x+1/2, -y+1/2, -z+1/2'
7 '-x, -y, z'
8 'x, y, z'
loop_
_atom_type_symbol
_atom_type_oxidation_number
Li1+ 1
O0+ -0.5
loop_
_atom_site_label
_atom_site_type_symbol
_atom_site_symmetry_multiplicity
_atom_site_Wyckoff_symbol
_atom_site_fract_x
_atom_site_fract_y
_atom_site_fract_z
_atom_site_B_iso_or_equiv
_atom_site_occupancy
_atom_site_attached_hydrogens
Li1 Li1+ 2 a 0 0 0 . 1. 0
O1 O0+ 4 g 0.133 0.4156 0 . 1. 0
#End of TTdata_180561-ICSD