
#(C) 2019 by FIZ Karlsruhe - Leibniz Institute for Information Infrastructure.  All rights reserved.
data_104990-ICSD
_database_code_ICSD 104990
_audit_creation_date 2004-10-01
_chemical_name_systematic 'Manganese titanium (3.6/2.4)'
_chemical_formula_structural 'Mn3.6 Ti2.4'
_chemical_formula_sum 'Mn3.6 Ti2.4'
_chemical_name_structure_type Laves(2H)-MgZn2
_exptl_crystal_density_diffrn 6.37
_publ_section_title
'Neutron diffraction in Ti1.2 Mn1.8 deuteride. Structural and magnetic aspects'
loop_
_citation_id
_citation_journal_full
_citation_year
_citation_journal_volume
_citation_page_first
_citation_page_last
_citation_journal_id_ASTM
primary 'Journal of the Less-Common Metals' 1984 99 307 319 JCOMAH
loop_
_publ_author_name
'Fruchart, D.'
'Soubeyroux, J.L.'
'Hempelmann, R.'
_cell_length_a 4.862(1)
_cell_length_b 4.862
_cell_length_c 7.969(2)
_cell_angle_alpha 90.
_cell_angle_beta 90.
_cell_angle_gamma 120.
_cell_volume 163.14
_cell_formula_units_Z 2
_symmetry_space_group_name_H-M 'P 63/m m c'
_symmetry_Int_Tables_number 194
_refine_ls_R_factor_all 0.048
loop_
_symmetry_equiv_pos_site_id
_symmetry_equiv_pos_as_xyz
1 'x, x-y, -z+1/2'
2 '-x+y, y, -z+1/2'
3 '-y, -x, -z+1/2'
4 '-x+y, -x, -z+1/2'
5 '-y, x-y, -z+1/2'
6 'x, y, -z+1/2'
7 '-x, -x+y, z+1/2'
8 'x-y, -y, z+1/2'
9 'y, x, z+1/2'
10 'x-y, x, z+1/2'
11 'y, -x+y, z+1/2'
12 '-x, -y, z+1/2'
13 '-x, -x+y, -z'
14 'x-y, -y, -z'
15 'y, x, -z'
16 'x-y, x, -z'
17 'y, -x+y, -z'
18 '-x, -y, -z'
19 'x, x-y, z'
20 '-x+y, y, z'
21 '-y, -x, z'
22 '-x+y, -x, z'
23 '-y, x-y, z'
24 'x, y, z'
loop_
_atom_type_symbol
_atom_type_oxidation_number
Mn0+ 0
Ti0+ 0
Mn0+ 0
Ti0+ 0
loop_
_atom_site_label
_atom_site_type_symbol
_atom_site_symmetry_multiplicity
_atom_site_Wyckoff_symbol
_atom_site_fract_x
_atom_site_fract_y
_atom_site_fract_z
_atom_site_B_iso_or_equiv
_atom_site_occupancy
_atom_site_attached_hydrogens
Mn1 Mn0+ 2 a 0 0 0 0.8(6) 0.6 0
Ti1 Ti0+ 2 a 0 0 0 0.8(6) 0.4 0
Mn2 Mn0+ 6 h 0.833(1) 0.666 0.25 1.3(5) 1. 0
Ti2 Ti0+ 4 f 0.3333 0.6667 0.439(1) 1.4(6) 1. 0
#End of TTdata_104990-ICSD