
#(C) 2019 by FIZ Karlsruhe - Leibniz Institute for Information Infrastructure.  All rights reserved.
data_163906-ICSD
_database_code_ICSD 163906
_audit_creation_date 2009-08-01
_chemical_name_systematic 'Lithium titanium oxide (0.07/1/2)'
_chemical_formula_structural 'Li0.07 Ti O2'
_chemical_formula_sum 'Li0.07 O2 Ti1'
_chemical_name_structure_type LixTiO2
_exptl_crystal_density_diffrn 4.24
_cell_measurement_temperature 10.
_publ_section_title 'Impact of nanosizing on lithiated rutile Ti O2'
loop_
_citation_id
_citation_journal_full
_citation_year
_citation_journal_volume
_citation_page_first
_citation_page_last
_citation_journal_id_ASTM
primary 'Chemistry of Materials' 2008 20 2949 2955 CMATEX
loop_
_publ_author_name
'Borghols, W.J.H.'
'Wagemaker, M.'
'Lafont, U.'
'Kelder, E.M.'
'Mulder, F.M.'
_cell_length_a 4.619
_cell_length_b 4.619
_cell_length_c 2.954
_cell_angle_alpha 90.
_cell_angle_beta 90.
_cell_angle_gamma 90.
_cell_volume 63.02
_cell_formula_units_Z 2
_symmetry_space_group_name_H-M 'P 42/m n m'
_symmetry_Int_Tables_number 136
_refine_ls_R_factor_all 0.03
loop_
_symmetry_equiv_pos_site_id
_symmetry_equiv_pos_as_xyz
1 '-y+1/2, x+1/2, -z+1/2'
2 'y+1/2, -x+1/2, -z+1/2'
3 'y, x, -z'
4 '-y, -x, -z'
5 'y+1/2, -x+1/2, z+1/2'
6 '-y+1/2, x+1/2, z+1/2'
7 '-y, -x, z'
8 'y, x, z'
9 'x+1/2, -y+1/2, -z+1/2'
10 '-x+1/2, y+1/2, -z+1/2'
11 'x, y, -z'
12 '-x, -y, -z'
13 '-x+1/2, y+1/2, z+1/2'
14 'x+1/2, -y+1/2, z+1/2'
15 '-x, -y, z'
16 'x, y, z'
loop_
_atom_type_symbol
_atom_type_oxidation_number
Ti3+ 3.93
O2- -2
Li1+ 1
loop_
_atom_site_label
_atom_site_type_symbol
_atom_site_symmetry_multiplicity
_atom_site_Wyckoff_symbol
_atom_site_fract_x
_atom_site_fract_y
_atom_site_fract_z
_atom_site_B_iso_or_equiv
_atom_site_occupancy
_atom_site_attached_hydrogens
Ti1 Ti3+ 2 a 0 0 0 . 1. 0
O1 O2- 4 f 0.3019 0.3019 0 . 1. 0
Li1 Li1+ 4 c 0.5 0 0.5 . 0.0175 0
Li2 Li1+ 4 d 0.5 0 0.25 . 0.0175 0
#End of TTdata_163906-ICSD