
#(C) 2019 by FIZ Karlsruhe - Leibniz Institute for Information Infrastructure.  All rights reserved.
data_19018-ICSD
_database_code_ICSD 19018
_audit_creation_date 1980-01-01
_audit_update_record 2007-08-01
_chemical_name_systematic 'Titanium oxide (4/7)'
_chemical_formula_structural 'Ti4 O7'
_chemical_formula_sum 'O7 Ti4'
_chemical_name_structure_type V4O7
_exptl_crystal_density_diffrn 4.33
_cell_measurement_temperature 120.
_publ_section_title
'Structural aspect of the metal-insulator transition in Ti4 O7'
loop_
_citation_id
_citation_journal_full
_citation_year
_citation_journal_volume
_citation_page_first
_citation_page_last
_citation_journal_id_ASTM
primary 'Journal of Solid State Chemistry' 1973 6 213 221 JSSCBI
loop_
_publ_author_name
'Marezio, M.'
'McWhan, D.B.'
'Dernier, P.D.'
'Remeika, J.P.'
_cell_length_a 5.59(1)
_cell_length_b 7.131(1)
_cell_length_c 12.487(2)
_cell_angle_alpha 95.00(1)
_cell_angle_beta 95.33(1)
_cell_angle_gamma 108.88(1)
_cell_volume 465.3
_cell_formula_units_Z 4
_symmetry_space_group_name_H-M 'A -1'
_symmetry_Int_Tables_number 2
_refine_ls_R_factor_all 0.019
loop_
_symmetry_equiv_pos_site_id
_symmetry_equiv_pos_as_xyz
1 '-x, -y, -z'
2 'x, y, z'
3 '-x, -y+1/2, -z+1/2'
4 'x, y+1/2, z+1/2'
loop_
_atom_type_symbol
_atom_type_oxidation_number
Ti0+ 0
O0+ 0
loop_
_atom_site_label
_atom_site_type_symbol
_atom_site_symmetry_multiplicity
_atom_site_Wyckoff_symbol
_atom_site_fract_x
_atom_site_fract_y
_atom_site_fract_z
_atom_site_B_iso_or_equiv
_atom_site_occupancy
_atom_site_attached_hydrogens
Ti1 Ti0+ 4 i 0.2367(2) 0.1634(2) 0.06824(9) . 1. 0
Ti2 Ti0+ 4 i 0.2129(2) 0.6714(2) 0.06558(9) . 1. 0
Ti3 Ti0+ 4 i 0.6693(2) 0.4389(2) 0.19376(9) . 1. 0
Ti4 Ti0+ 4 i 0.7057(2) 0.9492(2) 0.20440(8) . 1. 0
O1 O0+ 4 i 0.1080(7) 0.8616(6) 0.0165(3) . 1. 0
O2 O0+ 4 i 0.5803(7) 0.7967(6) 0.0618(3) . 1. 0
O3 O0+ 4 i 0.8573(7) 0.4961(6) 0.0742(3) . 1. 0
O4 O0+ 4 i 0.3159(7) 0.4455(6) 0.1423(3) . 1. 0
O5 O0+ 4 i 0.5283(6) 0.1362(6) 0.1691(3) . 1. 0
O6 O0+ 4 i 0.0373(7) 0.0706(6) 0.1980(3) . 1. 0
O7 O0+ 4 i 0.2849(7) 0.7794(6) 0.2224(3) . 1. 0
loop_
_atom_site_aniso_label
_atom_site_aniso_type_symbol
_atom_site_aniso_beta_11
_atom_site_aniso_beta_22
_atom_site_aniso_beta_33
_atom_site_aniso_beta_12
_atom_site_aniso_beta_13
_atom_site_aniso_beta_23
Ti1 Ti0+ 0.0038(5) 0.0017(3) 0.00039(8) 0.0019(2) 0.0004(1) 0.0000(1)
Ti2 Ti0+ 0.0035(4) 0.0015(3) 0.00050(8) 0.0013(3) 0.0003(1) -.0001(1)
Ti3 Ti0+ 0.0028(5) 0.0016(3) 0.00049(8) 0.0009(3) 0.0008(1) 0.0003(1)
Ti4 Ti0+ 0.0023(4) 0.0018(3) 0.00052(8) 0.0012(2) 0.0004(2) 0.0002(1)
O1 O0+ 0.0058(13) 0.0020(9) 0.0010(3) 0.0014(9) 0.0010(4) -.0004(4)
O2 O0+ 0.0044(12) 0.0017(8) 0.0013(3) 0.0020(8) 0.0009(5) -.0003(4)
O3 O0+ 0.0050(12) 0.0035(9) 0.0010(2) 0.0018(8) 0.0009(5) -.0001(4)
O4 O0+ 0.0070(13) 0.0016(8) 0.0006(2) 0.0023(8) 0.0005(4) -.0004(4)
O5 O0+ 0.0062(13) 0.0018(9) 0.0006(3) -.0002(9) 0.0006(5) -.0003(4)
O6 O0+ 0.0063(13) 0.0039(9) 0.0010(2) 0.0018(9) 0.0006(5) 0.0002(4)
O7 O0+ 0.0038(13) 0.0034(9) 0.0010(3) 0.0007(9) 0.0009(4) 0.0008(4)
#End of TTdata_19018-ICSD