
#(C) 2019 by FIZ Karlsruhe - Leibniz Institute for Information Infrastructure.  All rights reserved.
data_30602-ICSD
_database_code_ICSD 30602
_audit_creation_date 1986-09-23
_audit_update_record 2016-02-01
_chemical_name_systematic Hydrogenperoxide
_chemical_formula_structural 'H O2 H'
_chemical_formula_sum 'H2 O2'
_chemical_name_structure_type H2O2
_chemical_name_mineral 'Hydrogen peroxide'
_exptl_crystal_density_diffrn 1.71
_publ_section_title 'The Crystal Structure of Hydrogen Peroxide'
loop_
_citation_id
_citation_journal_full
_citation_year
_citation_journal_volume
_citation_page_first
_citation_page_last
_citation_journal_id_ASTM
primary 'Acta Crystallographica' 1951 4 15 20 ACCRA9
loop_
_publ_author_name
'Abrahams, S.C.'
'Collin, R.L.'
'Lipscomb, W.N.'
_cell_length_a 4.06(2)
_cell_length_b 4.06(2)
_cell_length_c 8.00(2)
_cell_angle_alpha 90.
_cell_angle_beta 90.
_cell_angle_gamma 90.
_cell_volume 131.87
_cell_formula_units_Z 4
_symmetry_space_group_name_H-M 'P 41 21 2'
_symmetry_Int_Tables_number 92
_refine_ls_R_factor_all 0.135
loop_
_symmetry_equiv_pos_site_id
_symmetry_equiv_pos_as_xyz
1 'x+1/2, -y+1/2, -z+3/4'
2 '-x+1/2, y+1/2, -z+1/4'
3 '-y, -x, -z+1/2'
4 'y, x, -z'
5 'y+1/2, -x+1/2, z+3/4'
6 '-y+1/2, x+1/2, z+1/4'
7 '-x, -y, z+1/2'
8 'x, y, z'
loop_
_atom_type_symbol
_atom_type_oxidation_number
O1- -1
H1+ 1
loop_
_atom_site_label
_atom_site_type_symbol
_atom_site_symmetry_multiplicity
_atom_site_Wyckoff_symbol
_atom_site_fract_x
_atom_site_fract_y
_atom_site_fract_z
_atom_site_B_iso_or_equiv
_atom_site_occupancy
_atom_site_attached_hydrogens
O1 O1- 8 b 0.071 0.172 0.214 . 1. 0
#End of TTdata_30602-ICSD