
#(C) 2019 by FIZ Karlsruhe - Leibniz Institute for Information Infrastructure.  All rights reserved.
data_36408-ICSD
_database_code_ICSD 36408
_audit_creation_date 1980-01-01
_audit_update_record 2015-02-01
_chemical_name_systematic 'Titanium oxide'
_chemical_formula_structural 'Ti O2'
_chemical_formula_sum 'O2 Ti1'
_chemical_name_structure_type Brookite-TiO2
_chemical_name_mineral Brookite
_exptl_crystal_density_diffrn 4.13
_cell_measurement_temperature 298.
_publ_section_title

;
Polyhedral thermal expansion in the Ti O2 polymorphs. Refinement of the
crystal structures of rutile and brookite at high temperature
;
loop_
_citation_id
_citation_journal_full
_citation_year
_citation_journal_volume
_citation_page_first
_citation_page_last
_citation_journal_id_ASTM
primary 'Canadian Mineralogist' 1979 17 77 85 CAMIA6
loop_
_publ_author_name
'Meagher, E.P.'
'Lager, G.A.'
_cell_length_a 9.174(2)
_cell_length_b 5.449(2)
_cell_length_c 5.138(2)
_cell_angle_alpha 90.
_cell_angle_beta 90.
_cell_angle_gamma 90.
_cell_volume 256.84
_cell_formula_units_Z 8
_symmetry_space_group_name_H-M 'P b c a'
_symmetry_Int_Tables_number 61
_refine_ls_R_factor_all 0.039
loop_
_symmetry_equiv_pos_site_id
_symmetry_equiv_pos_as_xyz
1 'x+1/2, y, -z+1/2'
2 'x, -y+1/2, z+1/2'
3 '-x+1/2, y+1/2, z'
4 '-x, -y, -z'
5 '-x+1/2, -y, z+1/2'
6 '-x, y+1/2, -z+1/2'
7 'x+1/2, -y+1/2, -z'
8 'x, y, z'
loop_
_atom_type_symbol
_atom_type_oxidation_number
Ti4+ 4
O2- -2
loop_
_atom_site_label
_atom_site_type_symbol
_atom_site_symmetry_multiplicity
_atom_site_Wyckoff_symbol
_atom_site_fract_x
_atom_site_fract_y
_atom_site_fract_z
_atom_site_B_iso_or_equiv
_atom_site_occupancy
_atom_site_attached_hydrogens
Ti1 Ti4+ 8 c 0.1289(1) 0.0972(1) 0.8628(1) . 1. 0
O1 O2- 8 c 0.0095(4) 0.1491(5) 0.1835(5) . 1. 0
O2 O2- 8 c 0.2314(4) 0.1110(4) 0.5366(6) . 1. 0
loop_
_atom_site_aniso_label
_atom_site_aniso_type_symbol
_atom_site_aniso_beta_11
_atom_site_aniso_beta_22
_atom_site_aniso_beta_33
_atom_site_aniso_beta_12
_atom_site_aniso_beta_13
_atom_site_aniso_beta_23
Ti1 Ti4+ 0.00127(22) 0.00376(28) 0.00223(31) -.00005(11) 0.00009 -.00019
O1 O2- 0.00171(46) 0.00446(82) 0.00265(89) -.00041(42) 0.00073(47) -.00077
O2 O2- 0.00066(48) 0.00759(94) 0.00439(94) 0.00057(45) 0.00052(45) 0.00129
#End of TTdata_36408-ICSD