
#(C) 2019 by FIZ Karlsruhe - Leibniz Institute for Information Infrastructure.  All rights reserved.
data_51187-ICSD
_database_code_ICSD 51187
_audit_creation_date 2002-04-01
_chemical_name_systematic 'Lithium titanium oxide (1.08/1.79/4)'
_chemical_formula_structural 'Li1.078 Ti1.786 O4'
_chemical_formula_sum 'Li1.078 O4 Ti1.786'
_chemical_name_structure_type Li.5TiO2
_exptl_crystal_density_diffrn 3.67
_publ_section_title

;
A new solid solution series linking Li Ti2 O4 and Li2 Ti3 O7 ramsdellites: a
combined x-ray and neutron study
;
loop_
_citation_id
_citation_journal_full
_citation_year
_citation_journal_volume
_citation_page_first
_citation_page_last
_citation_journal_id_ASTM
primary 'Journal of Solid State Chemistry' 1998 141 365 372 JSSCBI
loop_
_publ_author_name
'Gover, R.K.B.'
'Irvine, J.T.S.'
_cell_length_a 5.0225(1)
_cell_length_b 9.5912(3)
_cell_length_c 2.9490(8)
_cell_angle_alpha 90.
_cell_angle_beta 90.
_cell_angle_gamma 90.
_cell_volume 142.06
_cell_formula_units_Z 2
_symmetry_space_group_name_H-M 'P b n m'
_symmetry_Int_Tables_number 62
_refine_ls_R_factor_all 0.0337
loop_
_symmetry_equiv_pos_site_id
_symmetry_equiv_pos_as_xyz
1 '-x+1/2, y+1/2, z'
2 'x, y, -z+1/2'
3 'x+1/2, -y+1/2, z+1/2'
4 '-x, -y, -z'
5 'x+1/2, -y+1/2, -z'
6 '-x, -y, z+1/2'
7 '-x+1/2, y+1/2, -z+1/2'
8 'x, y, z'
loop_
_atom_type_symbol
_atom_type_oxidation_number
Li1+ 1
Ti3+ 3.876
Li1+ 1
O2- -2
loop_
_atom_site_label
_atom_site_type_symbol
_atom_site_symmetry_multiplicity
_atom_site_Wyckoff_symbol
_atom_site_fract_x
_atom_site_fract_y
_atom_site_fract_z
_atom_site_B_iso_or_equiv
_atom_site_occupancy
_atom_site_attached_hydrogens
Li1 Li1+ 4 c -.0605(2) 0.4752(3) 0.25 . 0.432(1) 0
Ti1 Ti3+ 4 c -.0247(3) 0.1409(1) 0.25 . 0.893(3) 0
Li2 Li1+ 4 c -.0247(3) 0.1409(1) 0.25 . 0.107 0
O1 O2- 4 c 0.6851(2) 0.2765(1) 0.25 . 1. 0
O2 O2- 4 c 0.2027(2) -.0342(9) 0.25 . 1. 0
loop_
_atom_site_aniso_label
_atom_site_aniso_type_symbol
_atom_site_aniso_B_11
_atom_site_aniso_B_22
_atom_site_aniso_B_33
_atom_site_aniso_B_12
_atom_site_aniso_B_13
_atom_site_aniso_B_23
Li1 Li1+ 1.61(41) 34.80(28) 4.83(69) 1.71(84) 0 0
Ti1 Ti3+ 1.50(7) 0.78(6) 99.(5) 0.11(5) 0 0
Li2 Li1+ 1.50(7) 0.78(6) 99.(5) 0.11(5) 0 0
O1 O2- 1.49(4) 1.31(5) 0.86(5) 0.60(4) 0 0
O2 O2- 0.75(3) 0.97(4) 0.90(5) 0.00(4) 0 0
#End of TTdata_51187-ICSD